(declare-fun a () Real)
(declare-fun b () Real)
(declare-fun c () Real)
(declare-fun d () Real)
(declare-fun e () Real)
(declare-fun f () Real)
(declare-fun g () Real)
(declare-fun h () Real)
(declare-fun i () Real)
(declare-fun j () Real)
(declare-fun k () Real)
(declare-fun l () Real)
(declare-fun o () Real)
(assert (not (exists ((n Real)) (=> (> d i) (= (<= 0 k) (not (=> (<= 0 n k) (and (= (+ (* b n) h) c) (= n (- d i))))))))))
(assert (not (exists ((m Real)) (= (or (< (* l i i) 0 g) (< (+ j o) 0)) (or (< 0 a) (>= (+ (* 6 e) (/ i (* 2 l))) f))))))
(check-sat)
